DIMENSION :22
NODE_COORD_SECTION
1 40.65616948690163 -11.630131224624378
2 -30.012636841317388 -82.68773515589118
3 -49.96233595519095 -60.79885637051221
4 52.14793175866069 93.85807756824892
5 19.381809468617888 -12.358577239536743
6 16.31409248503843 91.62972169012585
7 59.241357565793635 58.78629719016655
8 75.06563326973895 48.53570044338454
9 56.514904745288334 82.81268707367497
10 -64.59132039739283 -14.184057697959872
11 -27.17109949020029 -29.549094959563277
12 19.41846599897474 -91.55733048126193
13 -99.67282982046713 79.63053821304382
14 62.9103372586988 -49.06613931701531
15 42.134901917743974 39.44378317150233
16 -34.63701533137457 -89.78850332591131
17 -33.00957768216877 31.359288005547995
18 12.169257048404234 31.550613316622076
19 -48.9852257460842 92.65823050729281
20 -80.60839044406443 -30.670560224729428
21 -35.68436740589817 -96.64622434304569
22 -38.449276296461264 31.20484909410024
EOF
